; Graph Coloring Problem in SMT-LIB
; We will color a graph with 16 nodes using 3 colors (Red, Green, Blue)

(set-logic QF_UF)

; Declare colors
(declare-datatypes () ((Color Red Green Blue)))

; Declare variables for each node's color
(declare-const Node1 Color)
(declare-const Node2 Color)
(declare-const Node3 Color)
(declare-const Node4 Color)
(declare-const Node5 Color)
(declare-const Node6 Color)
(declare-const Node7 Color)
(declare-const Node8 Color)
(declare-const Node9 Color)
(declare-const Node10 Color)
(declare-const Node11 Color)
(declare-const Node12 Color)
(declare-const Node13 Color)
(declare-const Node14 Color)
(declare-const Node15 Color)
(declare-const Node16 Color)

; Adjacency constraints (edges between nodes)
; Node1 is connected to Node2 and Node3
; Node2 is connected to Node3, Node4, and Node5
; Node3 is connected to Node4 and Node6
; Node4 is connected to Node5 and Node6
; Node5 is connected to Node6
(assert (distinct Node1 Node2))
(assert (distinct Node1 Node3))
(assert (distinct Node2 Node3))
(assert (distinct Node2 Node4))
(assert (distinct Node2 Node5))
(assert (distinct Node3 Node4))
(assert (distinct Node3 Node6))
(assert (distinct Node4 Node5))
(assert (distinct Node4 Node6))
(assert (distinct Node5 Node6))

; Additional adjacency constraints for new nodes
; Node7 is connected to Node8 and Node9
; Node8 is connected to Node9, Node10, and Node11
; Node9 is connected to Node10 and Node12
; Node10 is connected to Node11 and Node12
; Node11 is connected to Node12
; Node13 is connected to Node14 and Node15
; Node14 is connected to Node15 and Node16
; Node15 is connected to Node16
(assert (distinct Node7 Node8))
(assert (distinct Node7 Node9))
(assert (distinct Node8 Node9))
(assert (distinct Node8 Node10))
(assert (distinct Node8 Node11))
(assert (distinct Node9 Node10))
(assert (distinct Node9 Node12))
(assert (distinct Node10 Node11))
(assert (distinct Node10 Node12))
(assert (distinct Node11 Node12))
(assert (distinct Node13 Node14))
(assert (distinct Node13 Node15))
(assert (distinct Node14 Node15))
(assert (distinct Node14 Node16))
(assert (distinct Node15 Node16))

; Solve for a valid coloring
(check-sat)
(get-model)

; Retrieve the values of each node's color
(get-value (Node1))
(get-value (Node2))
(get-value (Node3))
(get-value (Node4))
(get-value (Node5))
(get-value (Node6))
(get-value (Node7))
(get-value (Node8))
(get-value (Node9))
(get-value (Node10))
(get-value (Node11))
(get-value (Node12))
(get-value (Node13))
(get-value (Node14))
(get-value (Node15))
(get-value (Node16))